%chk=acetaldehyde_TSvinylalcohol_HF321G.chk
# opt=(calcfc,ts,noeigentest) freq hf/3-21g geom=connectivity

Title Card Required

0 1
 C                  0.88066510    0.27642181   -0.18372393
 H                 -0.18933339    0.27642267   -0.18552281
 O                  2.07846592    0.67935879    0.25158602
 C                  1.83227008   -1.10026272   -0.13487265
 H                  2.33315466   -0.39857525    0.67400230
 H                  1.13534413   -1.91216813   -0.13683068
 H                  2.44878496   -1.15731766   -1.00754334

 1 2 1.0 3 2.0 4 1.0
 2
 3 5 0.5
 4 5 1.0 6 1.0 7 1.0
 5
 6
 7

