%chk=acetaldehyde_HF321G.chk
# opt freq hf/3-21g geom=connectivity

Title Card Required

0 1
 C                  1.13461536    0.26923077    0.00000000
 H                  0.06461687    0.26923163   -0.00179888
 O                  1.76165402    1.36028009    0.00210835
 C                  1.90197253   -1.06597071    0.00000000
 H                  2.51554714   -1.12471488    0.87462868
 H                  1.20504658   -1.87787612   -0.00195803
 H                  2.51848741   -1.12302565   -0.87267069

 1 2 1.0 3 2.0 4 1.0
 2
 3
 4 5 1.0 6 1.0 7 1.0
 5
 6
 7

